InboundTrucks  = 12;
OutboundTrucks = 8;
InboundDoors   = 2;
OutboundDoors  = 1;
ReleaseTime    = [11,9,2,29,9,8,10,2,6,22,6,4];
UnloadTime     = [5,1,10,12,1,5,6,11,10,11,12,11];
LoadTime       = [4,12,3,4,10,8,6,9];
TransferTime   = [| 0,0,2,0,0,0,0,0 | 0,0,1,0,0,0,0,0 | 0,0,0,0,1,0,0,0 | 0,0,0,3,0,0,4,5 | 0,1,3,1,0,3,0,0 | 0,2,0,0,0,2,0,0 | 0,0,0,1,0,0,0,0 | 0,0,0,3,2,4,0,0 | 0,0,0,0,0,2,0,0 | 2,0,0,5,0,0,3,0 | 0,0,0,0,0,3,0,4 | 0,1,0,0,0,5,0,0 |];
